    Minimize
    obj: 2 x1 + 1.5 x2 + 5 x3 

    Subject To
    witA: 35 x1 + 0.5 x2 + 0.5 x3 >= 0.5
    witB: 60 x1 + 300 x2 + 10 x3 >= 15
    blonnik: 30 x1 + 20 x2 + 10 x3 >= 4 

    x1 >= 0
    x2 >= 0
    x3 >= 0


    Generals
    x1
    x2
    x3
	
	End